 vasp.6.1.1 19Jun20 (build Oct 02 2020 08:35:19) complex

 executed on             LinuxIFC date 2020.11.06  17:00:33

 INCAR:
 POTCAR:   PAW_PBE Ni 06Sep2000
 POTCAR:   PAW_PBE Mn 06Sep2000
 POTCAR:   PAW_PBE Ga 08Apr2002
 POTCAR:   PAW_PBE Ni 06Sep2000
   VRHFIN =Ni:

   TITEL  = PAW_PBE Ni 06Sep2000
   POMASS =   58.690; ZVAL   =   10.000    mass and valenz
   ENMAX  =  269.533; ENMIN  =  202.150 eV
   QCUT   =   -4.451; QGAM   =    8.902    optimization parameters

   Description
     l     E      TYP  RCUT    TYP  RCUT
     2   .000     23  2.300
     2   .000     23  2.300
     0   .000     23  2.300
     0   .000     23  2.300
     1  -.200     23  2.300
     1   .000     23  2.300
     3   .000      7   .000

 POTCAR:   PAW_PBE Mn 06Sep2000
   VRHFIN =Mn: d6 s1

   TITEL  = PAW_PBE Mn 06Sep2000
   POMASS =   54.938; ZVAL   =    7.000    mass and valenz
   ENMAX  =  269.865; ENMIN  =  202.399 eV
   QCUT   =   -4.454; QGAM   =    8.907    optimization parameters

[...]

 POTCAR:   PAW_PBE Ga 08Apr2002
   VRHFIN =Ga: s2p1

   TITEL  = PAW_PBE Ga 08Apr2002
   POMASS =   69.723; ZVAL   =    3.000    mass and valenz
   ENMAX  =  134.678; ENMIN  =  101.009 eV
   QCUT   =   -3.146; QGAM   =    6.292    optimization parameters

   Description
     l     E      TYP  RCUT    TYP  RCUT
     0   .000     23  2.600
     0   .000     23  2.600
     1   .000     23  2.600
     1   .000     23  2.600
     2   .100     23  2.600
     3  -.100      7  2.600

 PAW_PBE Ni 06Sep2000                   :
 PAW_PBE Mn 06Sep2000                   :
 PAW_PBE Ga 08Apr2002                   :

 POSCAR: Heusler tetragonal
  positions in direct lattice
  velocities in cartesian coordinates
 exchange correlation table for  LEXCH =        8
   RHO(1)=    0.500       N(1)  =     2000
   RHO(2)=  100.500       N(2)  =     4000

 ion  position               nearest neighbor table
   1  0.250  0.250  0.250-   4 2.51   4 2.51   4 2.51   3 2.51   4 2.51   3 2.51   3 2.51   3 2.51
                             2 2.90   2 2.90   2 2.90   2 2.90   2 2.90   2 2.90
   2  0.750  0.750  0.750-   3 2.51   3 2.51   3 2.51   3 2.51   4 2.51   4 2.51   4 2.51   4 2.51
                             1 2.90   1 2.90   1 2.90   1 2.90   1 2.90   1 2.90
   3  0.500  0.500  0.500-   1 2.51   1 2.51   1 2.51   1 2.51   2 2.51   2 2.51   2 2.51   2 2.51
                             4 2.90   4 2.90   4 2.90   4 2.90   4 2.90   4 2.90
   4  0.000  0.000  0.000-   2 2.51   2 2.51   2 2.51   1 2.51   2 2.51   1 2.51   1 2.51   1 2.51
                             3 2.90   3 2.90   3 2.90   3 2.90   3 2.90   3 2.90

  LATTYP: Found a face centered cubic cell.
 ALAT       =     5.8071553138

  Lattice vectors:

 A1 = (   2.9035776569,   2.9035776569,   0.0000000000)
 A2 = (   0.0000000000,   2.9035776569,   2.9035776569)
 A3 = (   2.9035776569,   0.0000000000,   2.9035776569)

Analysis of symmetry for initial positions (statically):
 Subroutine PRICEL returns:
 Original cell was already a primitive cell.

 Routine SETGRP: Setting up the symmetry group for a
 face centered cubic supercell.

 Subroutine GETGRP returns: Found 48 space group operations
 (whereof 48 operations were pure point group operations)
 out of a pool of 48 trial point group operations.

The static configuration has the point symmetry O_h .

Analysis of symmetry for dynamics (positions and initial velocities):
 Subroutine PRICEL returns:
 Original cell was already a primitive cell.

[...]

The dynamic configuration has the point symmetry O_h .

Analysis of structural, dynamic, and magnetic symmetry:
 Subroutine PRICEL returns:
 Original cell was already a primitive cell.

 Routine SETGRP: Setting up the symmetry group for a
 face centered cubic supercell.

 Subroutine GETGRP returns: Found 48 space group operations
 (whereof 48 operations were pure point group operations)
 out of a pool of 48 trial point group operations.

The magnetic configuration has the point symmetry O_h .

 Subroutine INISYM returns: Found 48 space group operations
 (whereof 48 operations are pure point group operations),
 and found     1 'primitive' translations

                                     Primitive cell

  volume of cell :      48.9588

  direct lattice vectors                    reciprocal lattice vectors
     2.903577657  2.903577657  0.000000000     0.172201353  0.172201353 -0.172201353
     0.000000000  2.903577657  2.903577657    -0.172201353  0.172201353  0.172201353
     2.903577657  0.000000000  2.903577657     0.172201353 -0.172201353  0.172201353

  length of vectors
     4.106278902  4.106278902  4.106278902     0.298261492  0.298261492  0.298261492

  position of ions in fractional coordinates (direct lattice)
     0.250000000  0.250000000  0.250000000
     0.750000000  0.750000000  0.750000000
     0.500000000  0.500000000  0.500000000
     0.000000000  0.000000000  0.000000000

  ion indices of the primitive-cell ions
   primitive index   ion index
                 1           1
                 2           2
                 3           3
                 4           4

 KPOINTS: KPOINTS created by Atomic Simulation Env

Automatic generation of k-mesh.
Space group operators:
 irot       det(A)        alpha          n_x          n_y          n_z        tau_x        tau_y        tau_z
    1     1.000000     0.000000     1.000000     0.000000     0.000000     0.000000     0.000000     0.000000
    2    -1.000000     0.000000     1.000000     0.000000     0.000000     0.000000     0.000000     0.000000
    3     1.000000   120.000000    -0.577350    -0.577350    -0.577350     0.000000     0.000000     0.000000
    4    -1.000000   120.000000    -0.577350    -0.577350    -0.577350     0.000000     0.000000     0.000000
    5     1.000000   120.000000     0.577350     0.577350     0.577350     0.000000     0.000000     0.000000
    6    -1.000000   120.000000     0.577350     0.577350     0.577350     0.000000     0.000000     0.000000
    7     1.000000    90.000000     0.000000    -1.000000     0.000000     0.000000     0.000000     0.000000
    8    -1.000000    90.000000     0.000000    -1.000000     0.000000     0.000000     0.000000     0.000000
    9     1.000000   180.000000     0.707107     0.707107     0.000000     0.000000     0.000000     0.000000
   10    -1.000000   180.000000     0.707107     0.707107     0.000000     0.000000     0.000000     0.000000
   11     1.000000    90.000000     1.000000     0.000000     0.000000     0.000000     0.000000     0.000000
   12    -1.000000    90.000000     1.000000     0.000000     0.000000     0.000000     0.000000     0.000000
   13     1.000000   180.000000     0.000000     1.000000     0.000000     0.000000     0.000000     0.000000
   14    -1.000000   180.000000     0.000000     1.000000     0.000000     0.000000     0.000000     0.000000
   15     1.000000   120.000000     0.577350     0.577350    -0.577350     0.000000     0.000000     0.000000
   16    -1.000000   120.000000     0.577350     0.577350    -0.577350     0.000000     0.000000     0.000000
   17     1.000000   120.000000     0.577350    -0.577350    -0.577350     0.000000     0.000000     0.000000
   18    -1.000000   120.000000     0.577350    -0.577350    -0.577350     0.000000     0.000000     0.000000
   19     1.000000    90.000000     0.000000     1.000000     0.000000     0.000000     0.000000     0.000000
   20    -1.000000    90.000000     0.000000     1.000000     0.000000     0.000000     0.000000     0.000000
   21     1.000000    90.000000     0.000000     0.000000    -1.000000     0.000000     0.000000     0.000000
   22    -1.000000    90.000000     0.000000     0.000000    -1.000000     0.000000     0.000000     0.000000
   23     1.000000   180.000000     0.000000     0.707107     0.707107     0.000000     0.000000     0.000000
   24    -1.000000   180.000000     0.000000     0.707107     0.707107     0.000000     0.000000     0.000000
   25     1.000000   120.000000    -0.577350     0.577350     0.577350     0.000000     0.000000     0.000000
   26    -1.000000   120.000000    -0.577350     0.577350     0.577350     0.000000     0.000000     0.000000
   27     1.000000   120.000000    -0.577350     0.577350    -0.577350     0.000000     0.000000     0.000000
   28    -1.000000   120.000000    -0.577350     0.577350    -0.577350     0.000000     0.000000     0.000000
   29     1.000000   180.000000     0.000000     0.000000     1.000000     0.000000     0.000000     0.000000
   30    -1.000000   180.000000     0.000000     0.000000     1.000000     0.000000     0.000000     0.000000
   31     1.000000    90.000000    -1.000000     0.000000     0.000000     0.000000     0.000000     0.000000
   32    -1.000000    90.000000    -1.000000     0.000000     0.000000     0.000000     0.000000     0.000000
   33     1.000000   180.000000     0.707107     0.000000     0.707107     0.000000     0.000000     0.000000
   34    -1.000000   180.000000     0.707107     0.000000     0.707107     0.000000     0.000000     0.000000
   35     1.000000    90.000000     0.000000     0.000000     1.000000     0.000000     0.000000     0.000000
   36    -1.000000    90.000000     0.000000     0.000000     1.000000     0.000000     0.000000     0.000000
   37     1.000000   120.000000    -0.577350    -0.577350     0.577350     0.000000     0.000000     0.000000
   38    -1.000000   120.000000    -0.577350    -0.577350     0.577350     0.000000     0.000000     0.000000
   39     1.000000   180.000000     1.000000     0.000000     0.000000     0.000000     0.000000     0.000000
   40    -1.000000   180.000000     1.000000     0.000000     0.000000     0.000000     0.000000     0.000000
   41     1.000000   120.000000     0.577350    -0.577350     0.577350     0.000000     0.000000     0.000000
   42    -1.000000   120.000000     0.577350    -0.577350     0.577350     0.000000     0.000000     0.000000
   43     1.000000   180.000000     0.707107    -0.707107     0.000000     0.000000     0.000000     0.000000
   44    -1.000000   180.000000     0.707107    -0.707107     0.000000     0.000000     0.000000     0.000000
   45     1.000000   180.000000     0.707107     0.000000    -0.707107     0.000000     0.000000     0.000000
   46    -1.000000   180.000000     0.707107     0.000000    -0.707107     0.000000     0.000000     0.000000
   47     1.000000   180.000000     0.000000    -0.707107     0.707107     0.000000     0.000000     0.000000
   48    -1.000000   180.000000     0.000000    -0.707107     0.707107     0.000000     0.000000     0.000000

 Subroutine IBZKPT returns following result:

 Found    182 irreducible k-points:

 Following reciprocal coordinates:
            Coordinates               Weight
  0.041667  0.041667  0.041667      8.000000
  0.125000  0.041667  0.041667     24.000000
  0.208333  0.041667  0.041667     24.000000
  0.291667  0.041667  0.041667     24.000000
  0.375000  0.041667  0.041667     24.000000
  0.458333  0.041667  0.041667     24.000000
 -0.458333  0.041667  0.041667     24.000000
 -0.375000  0.041667  0.041667     24.000000
 -0.291667  0.041667  0.041667     24.000000
 -0.208333  0.041667  0.041667     24.000000
[...]
  -0.45833333  0.37500000  0.04166667       0.007
  -0.37500000  0.37500000  0.04166667       0.007
  -0.29166667  0.37500000  0.04166667       0.007
  -0.20833333  0.37500000  0.04166667       0.007
  -0.12500000  0.37500000  0.04166667       0.007
  -0.04166667  0.37500000  0.04166667       0.007
   0.45833333  0.45833333  0.04166667       0.003
  -0.45833333  0.45833333  0.04166667       0.007
  -0.37500000  0.45833333  0.04166667       0.007
  -0.29166667  0.45833333  0.04166667       0.007
  -0.20833333  0.45833333  0.04166667       0.007
  -0.12500000  0.45833333  0.04166667       0.007
  -0.04166667  0.45833333  0.04166667       0.007
  -0.45833333 -0.45833333  0.04166667       0.003
  -0.37500000 -0.45833333  0.04166667       0.007
  -0.29166667 -0.45833333  0.04166667       0.007
[...]
  -0.37500000  0.45833333  0.29166667       0.007
  -0.29166667  0.45833333  0.29166667       0.007
  -0.45833333 -0.45833333  0.29166667       0.003
  -0.37500000 -0.45833333  0.29166667       0.007
  -0.37500000 -0.37500000  0.29166667       0.003
   0.37500000  0.37500000  0.37500000       0.001
   0.45833333  0.37500000  0.37500000       0.003
  -0.45833333  0.37500000  0.37500000       0.003
  -0.37500000  0.37500000  0.37500000       0.003
   0.45833333  0.45833333  0.37500000       0.003
  -0.45833333  0.45833333  0.37500000       0.007
  -0.37500000  0.45833333  0.37500000       0.007
  -0.45833333 -0.45833333  0.37500000       0.003
   0.45833333  0.45833333  0.45833333       0.001
  -0.45833333  0.45833333  0.45833333       0.003

 position of ions in fractional coordinates (direct lattice)
   0.25000000  0.25000000  0.25000000
   0.75000000  0.75000000  0.75000000
   0.50000000  0.50000000  0.50000000
   0.00000000  0.00000000  0.00000000

 position of ions in cartesian coordinates  (Angst):
   1.45178883  1.45178883  1.45178883
   4.35536649  4.35536649  4.35536649
   2.90357766  2.90357766  2.90357766
   0.00000000  0.00000000  0.00000000

 k-point   1 :   0.0417 0.0417 0.0417  plane waves:    1642
 k-point   2 :   0.1250 0.0417 0.0417  plane waves:    1636
 k-point   3 :   0.2083 0.0417 0.0417  plane waves:    1631
 k-point   4 :   0.2917 0.0417 0.0417  plane waves:    1630
 k-point   5 :   0.3750 0.0417 0.0417  plane waves:    1628
 k-point   6 :   0.4583 0.0417 0.0417  plane waves:    1637
 k-point   7 :  -0.4583 0.0417 0.0417  plane waves:    1643
 k-point   8 :  -0.3750 0.0417 0.0417  plane waves:    1641
 k-point   9 :  -0.2917 0.0417 0.0417  plane waves:    1626
 k-point  10 :  -0.2083 0.0417 0.0417  plane waves:    1635
 k-point  11 :  -0.1250 0.0417 0.0417  plane waves:    1627
 k-point  12 :  -0.0417 0.0417 0.0417  plane waves:    1649
 k-point  13 :   0.1250 0.1250 0.0417  plane waves:    1629
 k-point  14 :   0.2083 0.1250 0.0417  plane waves:    1631
 k-point  15 :   0.2917 0.1250 0.0417  plane waves:    1627
 k-point  16 :   0.3750 0.1250 0.0417  plane waves:    1628
 k-point  17 :   0.4583 0.1250 0.0417  plane waves:    1631
 k-point  18 :  -0.4583 0.1250 0.0417  plane waves:    1632
 k-point  19 :  -0.3750 0.1250 0.0417  plane waves:    1633
 k-point  20 :  -0.2917 0.1250 0.0417  plane waves:    1632
 k-point  21 :  -0.2083 0.1250 0.0417  plane waves:    1629
 k-point  22 :  -0.1250 0.1250 0.0417  plane waves:    1628
 k-point  23 :  -0.0417 0.1250 0.0417  plane waves:    1630
 k-point  24 :   0.2083 0.2083 0.0417  plane waves:    1630
 k-point  25 :   0.2917 0.2083 0.0417  plane waves:    1634
 k-point  26 :   0.3750 0.2083 0.0417  plane waves:    1632
 k-point  27 :   0.4583 0.2083 0.0417  plane waves:    1627
 k-point  28 :  -0.4583 0.2083 0.0417  plane waves:    1633
 k-point  29 :  -0.3750 0.2083 0.0417  plane waves:    1626
 k-point  30 :  -0.2917 0.2083 0.0417  plane waves:    1628
 k-point  31 :  -0.2083 0.2083 0.0417  plane waves:    1633
 k-point  32 :  -0.1250 0.2083 0.0417  plane waves:    1625
 k-point  33 :  -0.0417 0.2083 0.0417  plane waves:    1628
 k-point  34 :   0.2917 0.2917 0.0417  plane waves:    1625
 k-point  35 :   0.3750 0.2917 0.0417  plane waves:    1643
 k-point  36 :   0.4583 0.2917 0.0417  plane waves:    1640
 k-point  37 :  -0.4583 0.2917 0.0417  plane waves:    1638
 k-point  38 :  -0.3750 0.2917 0.0417  plane waves:    1632
 k-point  39 :  -0.2917 0.2917 0.0417  plane waves:    1631
 k-point  40 :  -0.2083 0.2917 0.0417  plane waves:    1628
 k-point  41 :  -0.1250 0.2917 0.0417  plane waves:    1630
 k-point  42 :  -0.0417 0.2917 0.0417  plane waves:    1633
 k-point  43 :   0.3750 0.3750 0.0417  plane waves:    1641
 k-point  44 :   0.4583 0.3750 0.0417  plane waves:    1641
 k-point  45 :  -0.4583 0.3750 0.0417  plane waves:    1641
 k-point  46 :  -0.3750 0.3750 0.0417  plane waves:    1639
 k-point  47 :  -0.2917 0.3750 0.0417  plane waves:    1637
 k-point  48 :  -0.2083 0.3750 0.0417  plane waves:    1631
 k-point  49 :  -0.1250 0.3750 0.0417  plane waves:    1632
 k-point  50 :  -0.0417 0.3750 0.0417  plane waves:    1633
 k-point  51 :   0.4583 0.4583 0.0417  plane waves:    1633
 k-point  52 :  -0.4583 0.4583 0.0417  plane waves:    1637
 k-point  53 :  -0.3750 0.4583 0.0417  plane waves:    1639
 k-point  54 :  -0.2917 0.4583 0.0417  plane waves:    1640
 k-point  55 :  -0.2083 0.4583 0.0417  plane waves:    1633
 k-point  56 :  -0.1250 0.4583 0.0417  plane waves:    1633
 k-point  57 :  -0.0417 0.4583 0.0417  plane waves:    1639
 k-point  58 :  -0.4583-0.4583 0.0417  plane waves:    1640
 k-point  59 :  -0.3750-0.4583 0.0417  plane waves:    1639
 k-point  60 :  -0.2917-0.4583 0.0417  plane waves:    1640
[...]
 k-point 168 :  -0.3750 0.4583 0.2917  plane waves:    1632
 k-point 169 :  -0.2917 0.4583 0.2917  plane waves:    1633
 k-point 170 :  -0.4583-0.4583 0.2917  plane waves:    1631
 k-point 171 :  -0.3750-0.4583 0.2917  plane waves:    1635
 k-point 172 :  -0.3750-0.3750 0.2917  plane waves:    1640
 k-point 173 :   0.3750 0.3750 0.3750  plane waves:    1634
 k-point 174 :   0.4583 0.3750 0.3750  plane waves:    1636
 k-point 175 :  -0.4583 0.3750 0.3750  plane waves:    1630
 k-point 176 :  -0.3750 0.3750 0.3750  plane waves:    1633
 k-point 177 :   0.4583 0.4583 0.3750  plane waves:    1637
 k-point 178 :  -0.4583 0.4583 0.3750  plane waves:    1632
 k-point 179 :  -0.3750 0.4583 0.3750  plane waves:    1637
 k-point 180 :  -0.4583-0.4583 0.3750  plane waves:    1633
 k-point 181 :   0.4583 0.4583 0.4583  plane waves:    1649
 k-point 182 :  -0.4583 0.4583 0.4583  plane waves:    1637

 maximum and minimum number of plane-waves per node :       345      308

 maximum number of plane-waves:      1649
 maximum index in each direction:
   IXMAX=    8   IYMAX=    8   IZMAX=    8
   IXMIN=   -8   IYMIN=   -8   IZMIN=   -8

 parallel 3D FFT for wavefunctions:
    minimum data exchange during FFTs selected (reduces bandwidth)
 parallel 3D FFT for charge:
    minimum data exchange during FFTs selected (reduces bandwidth)

 Broyden mixing: mesh for mixing (old mesh)
   NGX = 17   NGY = 17   NGZ = 17
  (NGX  = 56   NGY  = 56   NGZ  = 56)
  gives a total of   4913 points

 initial charge density was supplied:
 charge density of overlapping atoms calculated
 number of electron      30.0000000 magnetization       3.9910000
 keeping initial charge density in first step

 Maximum index for augmentation-charges         1711 (set IRDMAX)

 First call to EWALD:  gamma=   0.485
 Maximum number of real-space cells 3x 3x 3
 Maximum number of reciprocal cells 3x 3x 3

--------------------------------------- Iteration      1(   1)  ---------------------------------------

 eigenvalue-minimisations  : 17472
 total energy-change (2. order) : 0.1895414E+03  (-0.1474836E+04)
 number of electron      30.0000000 magnetization       3.9910000
 augmentation part       30.0000000 magnetization       3.9910000

 Free energy of the ion-electron system (eV)
  alpha Z        PSCENC =       208.29293710
  Ewald energy   TEWEN  =     -2191.25844993
  -Hartree energ DENC   =      -723.08221851
  -exchange      EXHF   =         0.00000000
  -V(xc)+E(xc)   XCENC  =        33.37352154
  PAW double counting   =      2112.20558949    -2207.16919623
  entropy T*S    EENTRO =         0.00060499
  eigenvalues    EBANDS =       325.63709097
  atomic energy  EATOM  =      2631.54153758
  Solvation  Ediel_sol  =         0.00000000
  free energy    TOTEN  =       189.54141700 eV

  energy without entropy =      189.54081201  energy(sigma->0) =      189.54121534

[...]

 eigenvalue-minimisations  : 17480
 total energy-change (2. order) :-0.2067686E+03  (-0.1927471E+03)
 number of electron      30.0000000 magnetization       3.9910000
 augmentation part       30.0000000 magnetization       3.9910000

[...]

 Broyden mixing:
  rms(total) = 0.13272E+01    rms(broyden)= 0.13272E+01
  rms(prec ) = 0.36052E+01
  weight for this iteration     100.00

[...]

 eigenvalues of (default mixing * dielectric matrix)
  average eigenvalue GAMMA=   0.5550
  0.5550

[...]

 eigenvalue-minimisations  :  9880
 total energy-change (2. order) : 0.1231660E-06  (-0.2508451E-08)
 number of electron      30.0000019 magnetization       4.0945361
 augmentation part       15.2116748 magnetization       3.0772664

 Broyden mixing:
  rms(total) = 0.19396E-04    rms(broyden)= 0.19395E-04
  rms(prec ) = 0.37642E-04
  weight for this iteration     100.00

 eigenvalues of (default mixing * dielectric matrix)
  average eigenvalue GAMMA=   1.0953
  2.6210  2.4978  1.5320  0.2158  1.1431  1.1431  1.0976  0.8592  0.7349  0.5564
  0.6509  0.5742  0.6127

[...]

--------------------------------------- Iteration      1(  19)  ---------------------------------------

 eigenvalue-minimisations  :  9560
 total energy-change (2. order) :-0.1561057E-07  (-0.3055117E-09)
 number of electron      30.0000019 magnetization       4.0945361
 augmentation part       15.2116748 magnetization       3.0772664

 Free energy of the ion-electron system (eV)
  alpha Z        PSCENC =       208.29293710
  Ewald energy   TEWEN  =     -2191.25844993
  -Hartree energ DENC   =      -676.51014206
  -exchange      EXHF   =         0.00000000
  -V(xc)+E(xc)   XCENC  =        32.88089204
  PAW double counting   =      2238.05004769    -2336.77555270
  entropy T*S    EENTRO =         0.00218596
  eigenvalues    EBANDS =        69.48009776
  atomic energy  EATOM  =      2631.54153758
  Solvation  Ediel_sol  =         0.00000000
  free energy    TOTEN  =       -24.29644656 eV

  energy without entropy =      -24.29863252  energy(sigma->0) =      -24.29717521

 average (electrostatic) potential at core
  the test charge radii are     0.9791  1.0210  1.2767
  (the norm of the test charge is              1.0000)
       1 -42.2187       2 -42.2187       3 -44.6285       4 -12.0418

 E-fermi :   5.0517     XC(G=0): -12.4231     alpha+bet :-12.1361

 spin component 1

 k-point     1 :       0.0417    0.0417    0.0417
  band No.  band energies     occupation
      1      -5.3455      1.00000
      2       1.1913      1.00000
      3       1.1913      1.00000
      4       1.4763      1.00000
      5       1.5242      1.00000
      6       1.5242      1.00000
      7       2.0310      1.00000
      8       2.0310      1.00000
      9       2.0312      1.00000
     10       3.8132      1.00000
     11       3.8132      1.00000
     12       3.8137      1.00000
     13       3.8629      1.00000
     14       3.8629      1.00000
     15       3.9539      1.00000
     16       3.9539      1.00000
     17       9.1541     -0.00000
     18       9.6706     -0.00000
     19       9.6706     -0.00000
     20      10.0168     -0.00000
     21      11.0319      0.00000
     22      11.0408      0.00000
     23      11.0408      0.00000
     24      12.8997      0.00000

[...]

 spin component 2

[...]

 k-point   182 :      -0.4583    0.4583    0.4583
  band No.  band energies     occupation
      1      -2.7552      1.00000
      2      -0.9858      1.00000
      3       1.7490      1.00000
      4       1.8988      1.00000
      5       2.6529      1.00000
      6       2.8664      1.00000
      7       2.8998      1.00000
      8       2.9810      1.00000
      9       3.0928      1.00000
     10       3.4214      1.00000
     11       3.4227      1.00000
     12       3.5036      1.00000
     13       5.3829     -0.02049
     14       5.4884     -0.00422
     15       6.4823     -0.00000
     16       6.5638     -0.00000
     17       6.5809     -0.00000
     18       8.5871     -0.00000
     19       9.0446     -0.00000
     20       9.3453     -0.00000
     21      11.0386      0.00000
     22      11.1250      0.00000
     23      14.0874      0.00000
     24      17.0474      0.00000

 soft charge-density along one line, spin component           1
         0         1         2         3         4         5         6         7         8         9
 total charge-density along one line

 soft charge-density along one line, spin component           2
         0         1         2         3         4         5         6         7         8         9
 total charge-density along one line

------------------------ aborting loop because EDIFF is reached ----------------------------------------

 total charge

# of ion       s       p       d       tot
    1        0.460   0.470   8.412   9.343
    2        0.460   0.470   8.412   9.343
    3        0.332   0.336   5.010   5.677
    4        1.068   1.319   0.187   2.575
tot          2.321   2.596  22.021  26.938

 magnetization (x)

[...]

  FORCE on cell =-STRESS in cart. coord.  units (eV):
  Direction    XX          YY          ZZ          XY          YZ          ZX
  Alpha Z   208.29294   208.29294   208.29294
  Ewald    -730.42005  -730.42005  -730.42005    -0.00000    -0.00000    -0.00000
  Hartree   225.50337   225.50337   225.50337     0.00000     0.00000     0.00000
  E(xc)    -156.04359  -156.04359  -156.04359    -0.00001    -0.00001    -0.00001
  Local     157.41957   157.41957   157.41957     0.00015     0.00015     0.00015
  n-local   -86.82397   -84.97508   -85.97541     0.66791    -0.00975    -0.65845
  augment   136.57398   136.57398   136.57398    -0.00011    -0.00011    -0.00011
  Kinetic   243.28295   243.94207   246.56765     1.31380    -0.00511    -1.29379
  Fock        0.00000     0.00000     0.00000     0.00000     0.00000     0.00000
  Total      -0.00104    -0.00104    -0.00104    -0.00000    -0.00000     0.00000
  in kB      -0.03411    -0.03411    -0.03411    -0.00000    -0.00000     0.00000

 VOLUME and BASIS-vectors are now :
  energy-cutoff  :      600.00
  volume of cell :       48.96
      direct lattice vectors                 reciprocal lattice vectors
     2.903577657  2.903577657  0.000000000     0.172201353  0.172201353 -0.172201353
     0.000000000  2.903577657  2.903577657    -0.172201353  0.172201353  0.172201353
     2.903577657  0.000000000  2.903577657     0.172201353 -0.172201353  0.172201353

  length of vectors
     4.106278902  4.106278902  4.106278902     0.298261492  0.298261492  0.298261492

 FORCES acting on ions
    electron-ion (+dipol)            ewald-force                    non-local-force                 convergence-correction
   0.669E-06 0.653E-06 0.669E-06   0.682E-14 -.671E-14 0.884E-14   0.217E-17 0.198E-17 0.390E-17   -.286E-09 -.286E-09 -.286E-09
   -.669E-06 -.653E-06 -.669E-06   -.105E-13 0.918E-14 -.619E-14   -.260E-17 -.211E-17 -.173E-17   0.286E-09 0.286E-09 0.286E-09
   -.795E-12 -.213E-12 0.103E-11   0.740E-16 -.150E-14 -.842E-16   0.000E+00 0.000E+00 0.000E+00   -.156E-13 -.128E-13 -.285E-13
   -.131E-13 -.200E-13 -.108E-13   0.413E-14 -.168E-14 -.245E-14   0.000E+00 0.000E+00 0.000E+00   -.150E-14 -.101E-14 0.137E-14
   0.883E-13 0.145E-11 0.213E-11   0.495E-15 -.702E-15 0.112E-15   -.434E-18 -.136E-18 0.217E-17   0.299E-13 0.195E-13 -.442E-13

 POSITION                                       TOTAL-FORCE (eV/Angst)
      1.45179      1.45179      1.45179         0.000000     -0.000000      0.000000
      4.35537      4.35537      4.35537         0.000000      0.000000     -0.000000
      2.90358      2.90358      2.90358        -0.000000     -0.000000     -0.000000
      0.00000      0.00000      0.00000        -0.000000     -0.000000     -0.000000
    total drift:                                0.000000      0.000000      0.000000

  FREE ENERGIE OF THE ION-ELECTRON SYSTEM (eV)
  free  energy   TOTEN  =       -24.29644656 eV

  energy  without entropy=      -24.29863252  energy(sigma->0) =      -24.29717521

 total charge

[...]

 magnetization (x)

# of ion       s       p       d       tot
    1       -0.016  -0.014   0.368   0.338
    2       -0.016  -0.014   0.368   0.338
    3        0.030   0.018   3.343   3.390
    4       -0.007  -0.064  -0.004  -0.075
tot         -0.010  -0.075   4.076   3.991